Sat 19 May 19:24:46 CEST 2018
CPXPARAM_TimeLimit                               45
CPXPARAM_Threads                                 1
CPXPARAM_MIP_Strategy_CallbackReducedLP          0
Tried aggregator 2 times.
MIP Presolve eliminated 564 rows and 520 columns.
MIP Presolve modified 36 coefficients.
Aggregator did 290 substitutions.
Reduced MIP has 393 rows, 467 columns, and 1078 nonzeros.
Reduced MIP has 462 binaries, 5 generals, 0 SOSs, and 117 indicators.
Presolve time = 0.00 sec. (2.21 ticks)
Probing time = 0.00 sec. (3.14 ticks)
Cover probing fixed 0 vars, tightened 5 bounds.
Tried aggregator 3 times.
MIP Presolve modified 62 coefficients.
Aggregator did 197 substitutions.
Reduced MIP has 227 rows, 270 columns, and 746 nonzeros.
Reduced MIP has 265 binaries, 5 generals, 0 SOSs, and 86 indicators.
Presolve time = 0.00 sec. (1.62 ticks)
Probing time = 0.00 sec. (1.24 ticks)
Tried aggregator 2 times.
Aggregator did 31 substitutions.
Reduced MIP has 196 rows, 239 columns, and 684 nonzeros.
Reduced MIP has 234 binaries, 5 generals, 0 SOSs, and 86 indicators.
Presolve time = 0.00 sec. (1.22 ticks)
Probing time = 0.00 sec. (1.08 ticks)
Clique table members: 707.
MIP emphasis: balance optimality and feasibility.
MIP search method: dynamic search.
Parallel mode: none, using 1 thread.
Root relaxation solution time = 0.00 sec. (0.29 ticks)

        Nodes                                         Cuts/
   Node  Left     Objective  IInf  Best Integer    Best Bound    ItCnt     Gap

      0     0        2.0000    86                      2.0000       12         
      0     0        2.0000    37                   Cuts: 150      119         
      0     0        2.0000    16                    Cuts: 81      171         
      0     0        2.0000    11                Impl Bds: 30      187         
      0     0        2.0000     7                    Cuts: 47      206         
      0     0        2.0000    12                    Cuts: 40      216         
      0     0        2.0000    18                    Cuts: 38      229         
*     0+    0                            2.0000        2.0000             0.00%
      0     0        cutoff              2.0000        2.0000      229    0.00%
Elapsed time = 0.03 sec. (25.28 ticks, tree = 0.01 MB, solutions = 1)

Clique cuts applied:  43
Implied bound cuts applied:  142

Root node processing (before b&c):
  Real time             =    0.03 sec. (25.32 ticks)
Sequential b&c:
  Real time             =    0.00 sec. (0.00 ticks)
                          ------------
Total (root+branch&cut) =    0.03 sec. (25.32 ticks)
  | W
L | 0 1 2 3 4 5 6 7 
--------------------
0 | . 1 . 2 4 4 . . 
1 | 3 . . . 4 4 . . 
2 | . . . . . . . . 
3 | . . . . . . . . 
4 | . . . . . . . . 

Boxes' corners:      (w,l)
    Box 1 is at 
        top left     (1,0)
        bottom right (1,0)

    Box 2 is at 
        top left     (3,0)
        bottom right (3,0)

    Box 3 is at 
        top left     (0,1)
        bottom right (0,1)

    Box 4 is at 
        top left     (4,0)
        bottom right (5,1)

    Roll length used: 2
In 0.02 seconds
